proyfinal/src/viki/013/experimentInOfficeAgust.take6.output/c35943f5-4a71-48e3-b0e4-a28ef593bbb7.als.dat
{'cnf.clauses': '118081',
 'cnf.totvars': '69608',
 'conflict literals': '3716',
 'conflicts': '330',
 'decisions': '8088',
 'memused.mb': '15.89',
 'outcome': 'UNSAT',
 'propagations': '466903',
 'restarts': '3',
 'solver.msecs': 49,
 'task.msecs': 112}
